20 10
15 31 12 17 46 41 26 12 23 97
69 37 35 51 29 214 44 180 36 139
3 24 74 8 20 102 83 40 127 139
63 23 78 10 13 35 57 72 72 20
42 16 11 20 58 9 16 33 82 9
18 20 26 53 21 202 23 30 202 38
51 27 1 38 8 16 138 57 37 155
7 50 59 48 32 34 6 69 65 13
36 98 12 135 106 73 1 125 44 8
64 85 42 87 156 1 31 102 47 3
12 9 24 23 13 11 56 56 5 72
34 34 1 3 6 6 100 7 51 7
125 40 50 38 24 59 18 153 1 62
28 41 62 59 57 74 40 81 28 23
69 72 17 106 142 72 110 13 6 24
14 142 6 22 14 30 50 76 92 42
14 3 64 6 32 124 40 11 58 8
31 94 17 31 16 45 139 36 32 23
17 10 35 152 25 61 74 69 121 268
61 6 43 22 13 3 18 32 37 61
